NAME: concorde7
TYPE: TSP
COMMENT: Generated by CCutil_writetsplib
COMMENT: Write called for by Concorde GUI
DIMENSION: 7
EDGE_WEIGHT_TYPE: EUC_2D
NODE_COORD_SECTION
1 29.656863 81.223629
2 29.003268 69.831224
3 21.486928 67.088608
4 20.915033 86.497890
5 24.019608 78.691983
6 25.571895 72.573840
7 27.042484 59.071730
